NAME: PointSet_Angle_40_1
TYPE: TSP
COMMENT: Points chosen discrete uniformly at random out of ${0, \ldots, 500}^2$.
DIMENSION: 40
EDGE_WEIGHT_TYPE: EUC_2D
NODE_COORD_SECTION
1 430 297
2 496 429
3 272 46
4 353 258
5 221 271
6 284 50
7 46 434
8 337 285
9 129 160
10 486 131
11 242 345
12 103 402
13 19 309
14 281 235
15 152 320
16 21 328
17 364 17
18 256 135
19 310 356
20 393 30
21 126 423
22 80 419
23 356 163
24 451 232
25 69 436
26 363 312
27 27 212
28 460 293
29 267 240
30 27 419
31 59 49
32 246 423
33 66 249
34 304 122
35 104 443
36 153 477
37 366 480
38 395 468
39 390 345
40 199 459
EOF
